
  32    4
  10   10   10   10

   0   0   0   0   0   7 2 3 4 9 10 12 17 
   6   3   0   1   1   5 20 16 14 7 5 
   3   2   0   4   3   2 20 6 
   6   6   0   6   3   5 31 23 19 13 11 
   6   1   1   0   2   3 31 13 8 
   5   4   6   6   0   6 31 30 23 19 15 13 
   2   3   4   0   3   5 29 23 19 18 13 
   4   4   0   1   2   3 24 23 11 
   9   4   5   0   4   3 28 23 15 
   2   4   5   6   0   3 23 18 13 
   7   5   0   1   4   2 30 15 
   8   0   6   6   4   5 31 28 27 24 22 
   3   6   0   5   3   4 28 27 24 21 
   8   2   0   1   3   4 28 27 23 21 
   5   2   3   0   3   2 29 18 
   5  10   5   5   0   2 29 18 
   8   4   0   4   3   2 29 18 
   4   0   3   5   7   3 27 25 21 
  10   8   0   4   8   3 28 26 24 
  10   4   3   0  10   2 28 23 
   4   5   0   2   6   1 22 
   6   6   5   6   0   1 26 
  10   2   3   0   4   1 25 
   8   3   5   5   0   1 25 
   8   2   5   6   0   1 32
   9   0   2   3   5   1 32
   2   4   1   0   5   1 32
   9   2   0   3   3   1 32
   1   2   5   5   0   1 32
   7   6   5   2   0   1 32
   3   0   4   5   2   1 32
   0   0   0   0   0   0 
